[1, 2, 4, 5, 7, 8, 7, 9, 9, 17, 14, 13, 15, 18, 12, 8, 10, 11, 16, 23, 22, 21, 21, 18, 17, 21, 20, 28, 27, 32, 30, 31, 35, 34, 36, 36, 37, 38, 38, 39, 35, 33, 42, 43, 45, 47, 46, 45, 42, 41, 36, 35, 46, 61, 59, 62, 63, 62, 59, 62, 63, 61, 60, 64, 67, 66, 67, 72, 70, 69, 68, 71, 73, 75, 76, 75, 76, 80, 83, 80, 82, 79, 83, 84, 85, 86, 87, 83, 90, 89, 91, 92, 93, 96, 91, 95, 102, 104, 106, 103, 104, 105, 102, 104, 103, 107, 106, 100, 109, 110, 112, 113, 111, 114, 108, 113, 114, 115, 119, 121, 120, 128, 127, 126, 124, 126, 127, 128, 129, 127, 131, 132, 136, 137, 137, 139, 135, 136, 140, 138, 146, 142, 140, 136, 138, 139, 145, 143, 147, 150, 157, 158, 153, 154, 154, 153, 155, 150, 152, 163, 159, 163, 164, 162, 173, 168, 166, 171, 169, 172, 172, 171, 173, 174, 175, 176, 181, 180, 185, 184, 182, 183, 184, 182, 194, 191, 195, 197, 192, 191, 190, 188, 189, 186, 193, 190, 196, 198, 194, 197, 198, 199, 204, 207, 205, 206, 207, 208, 209, 210, 211, 212, 212, 213, 218, 218, 216, 220, 219, 217, 213, 228, 228, 225, 224, 226, 232, 230, 229, 230, 230, 232, 233, 232, 233, 238, 232, 231, 246, 247, 246, 244, 243, 240, 245, 248, 249, 241, 250, 251, 249, 257, 259, 252, 255, 253, 257, 259, 259, 260, 261, 267, 266, 265, 266, 266, 270, 268, 269, 270, 272, 271, 276, 274, 275, 277, 276, 275, 276, 280]
[6, 6, 9, 11, 12, 13, 15, 16, 16, 17, 17, 20, 20, 20, 22, 27, 32, 36, 37, 37, 40, 41, 41, 60, 60, 65, 66, 66, 69, 71, 72, 78, 83, 85, 86, 88, 90, 90, 91, 94, 95, 99, 103, 103, 103, 104, 106, 110, 112, 112, 114, 118, 120, 125, 125, 128, 136, 136, 138, 138, 141, 142, 144, 153, 153, 154, 157, 161, 163, 172, 172, 174, 175, 183, 183, 185, 187, 188, 189, 189, 191, 192, 196, 196, 203, 205, 206, 206, 207, 208, 209, 215, 217, 217, 224, 225, 230, 232, 232, 237, 239, 244, 245, 245, 247, 249, 250, 252, 254, 258, 258, 258, 259, 260, 264, 265, 265, 265, 267, 270, 273, 274, 274, 276, 279, 280, 286, 286, 288, 289, 292, 308, 310, 311, 315, 317, 323, 323, 337, 337, 338, 339, 339, 341, 341, 344, 346, 347, 350, 360, 364, 365, 367, 368, 369, 369, 370, 373, 388, 389, 392, 392, 398, 409, 416, 416, 418, 418, 424, 428, 428, 431, 431, 432, 432, 437, 441, 441, 444, 447, 450, 450, 453, 459, 460, 460, 463, 468, 468, 470, 471, 472, 472, 475, 475, 482, 484, 488, 490, 490, 494, 497, 511, 511, 516, 518, 519, 523, 524, 524, 526, 531, 538, 539, 546, 548, 548, 549, 552, 554, 554, 554, 555, 566, 566, 567, 568, 569, 570, 574, 574, 579, 584, 588, 592, 592, 592, 594, 596, 598, 602, 602, 604, 616, 616, 625, 627, 628, 632, 632, 636, 640, 640, 640, 642, 643, 646, 664, 665, 666, 667, 669, 681, 683, 683, 684, 684, 684, 685, 685, 694, 694, 697, 697, 700, 704, 709, 710, 710, 712, 715, 716, 719, 730, 730, 732, 739, 739, 740, 741, 741, 743, 745, 747, 747, 748, 748, 749, 750, 752, 754, 754, 756, 761, 763, 765, 766, 767, 768, 774, 776, 788, 795, 797, 798, 801, 803, 803, 805, 807, 809, 812, 817, 824, 825, 826, 827, 827, 829, 837, 838, 840, 843, 843, 844, 844, 846, 856, 858, 867, 870, 873, 874, 874, 877, 878, 878, 883, 895, 895, 896, 905, 906, 908, 909, 915, 925, 927, 927, 936, 943, 944, 946, 948, 949, 949, 950, 950, 955, 956, 957, 960, 962, 962, 963, 963, 963, 968, 972, 972, 972, 973, 973, 981, 983, 989, 989, 991, 999, 999, 1002, 1009, 1009, 1010, 1011, 1012, 1016, 1017, 1018, 1018, 1024, 1029, 1032, 1034, 1034, 1046, 1048, 1048, 1049, 1049, 1052, 1054, 1054, 1055, 1056, 1061, 1064, 1064, 1065, 1067, 1069, 1069, 1077, 1089, 1091, 1096, 1097, 1103, 1105, 1106, 1106, 1108, 1110, 1111, 1111, 1112, 1112, 1112, 1113, 1120, 1123, 1123, 1124, 1124, 1127, 1130, 1132, 1132, 1135, 1136, 1136, 1136, 1137, 1145, 1148, 1149, 1153, 1153, 1158, 1177, 1177, 1177, 1179, 1181, 1194, 1195, 1195, 1199, 1200, 1201, 1202, 1206, 1206, 1207, 1210, 1222, 1224, 1225, 1228, 1228, 1230, 1234, 1236, 1242, 1242, 1242, 1244, 1246, 1247, 1250, 1251, 1251, 1251, 1257, 1260, 1269, 1269, 1270, 1272, 1273, 1278, 1278, 1283, 1296, 1297, 1297, 1299, 1299, 1300, 1304, 1305, 1305, 1306, 1306, 1314, 1322, 1322, 1324, 1326, 1332, 1333, 1333, 1334, 1340, 1341, 1345, 1345, 1345, 1346, 1348, 1348, 1360, 1361, 1361, 1362, 1363, 1365, 1366, 1367, 1372, 1372, 1375, 1376, 1381, 1381, 1381, 1382, 1385, 1385, 1386, 1390, 1390, 1391, 1391, 1391, 1392]
